Academic license - for non-commercial use only - expires 2022-11-10
Using license file /home/benedond/Apps/gurobi/gurobi950/gurobi.lic
Using gurobi.env file
Set parameter Threads to value 1
Changed value of parameter TimeLimit to 1200.0
   Prev: inf  Min: 0.0  Max: inf  Default: inf
Gurobi Optimizer version 9.1.2 build v9.1.2rc0 (linux64)
Thread count: 2 physical cores, 4 logical processors, using up to 1 threads
Optimize a model with 1700 rows, 840 columns and 6478 nonzeros
Model fingerprint: 0xf3198eb9
Variable types: 20 continuous, 820 integer (800 binary)
Coefficient statistics:
  Matrix range     [2e-01, 3e+03]
  Objective range  [1e-03, 3e-01]
  Bounds range     [1e+00, 1e+00]
  RHS range        [1e+00, 3e+03]

---------------------------------------------------------------------------
Multi-objectives: starting optimization with 1 objectives ... 
---------------------------------------------------------------------------
---------------------------------------------------------------------------

Multi-objectives: optimize objective 1 (min avg power cons) ...
---------------------------------------------------------------------------

Optimize a model with 1700 rows, 840 columns and 6478 nonzeros
Model fingerprint: 0x09288a07
Variable types: 20 continuous, 820 integer (800 binary)
Coefficient statistics:
  Matrix range     [2e-01, 3e+03]
  Objective range  [1e-03, 3e-01]
  Bounds range     [1e+00, 1e+00]
  RHS range        [1e+00, 3e+03]
Presolve removed 1105 rows and 542 columns
Presolve time: 0.04s
Presolved: 595 rows, 298 columns, 2207 nonzeros
Variable types: 12 continuous, 286 integer (274 binary)

Root relaxation: objective 1.382506e+00, 146 iterations, 0.00 seconds

    Nodes    |    Current Node    |     Objective Bounds      |     Work
 Expl Unexpl |  Obj  Depth IntInf | Incumbent    BestBd   Gap | It/Node Time

     0     0    1.38251    0   46          -    1.38251      -     -    0s
H    0     0                       3.5813580    1.38251  61.4%     -    0s
     0     0    1.54262    0   67    3.58136    1.54262  56.9%     -    0s
     0     0    1.55384    0   52    3.58136    1.55384  56.6%     -    0s
     0     0    1.76506    0   61    3.58136    1.76506  50.7%     -    0s
     0     0    1.78514    0   64    3.58136    1.78514  50.2%     -    0s
     0     0    1.85775    0   68    3.58136    1.85775  48.1%     -    0s
     0     0    1.86750    0   62    3.58136    1.86750  47.9%     -    0s
     0     0    1.86841    0   61    3.58136    1.86841  47.8%     -    0s
     0     0    1.95175    0   85    3.58136    1.95175  45.5%     -    0s
H    0     0                       3.3329382    1.95175  41.4%     -    0s
     0     0    1.97463    0   72    3.33294    1.97463  40.8%     -    0s
     0     0    1.98423    0   89    3.33294    1.98423  40.5%     -    0s
     0     0    1.98981    0   84    3.33294    1.98981  40.3%     -    0s
     0     0    1.99368    0   94    3.33294    1.99368  40.2%     -    0s
     0     0    1.99432    0   93    3.33294    1.99432  40.2%     -    0s
     0     0    1.99438    0   96    3.33294    1.99438  40.2%     -    0s
     0     0    2.00101    0   80    3.33294    2.00101  40.0%     -    0s
H    0     0                       3.1512716    2.00101  36.5%     -    0s
     0     0    2.00763    0   92    3.15127    2.00763  36.3%     -    0s
     0     0    2.00831    0   95    3.15127    2.00831  36.3%     -    0s
     0     0    2.00868    0   95    3.15127    2.00868  36.3%     -    0s
     0     0    2.00880    0   94    3.15127    2.00880  36.3%     -    0s
     0     0    2.01608    0   90    3.15127    2.01608  36.0%     -    0s
H    0     0                       3.1163950    2.01608  35.3%     -    0s
     0     0    2.01853    0   77    3.11640    2.01853  35.2%     -    0s
     0     0    2.01946    0   93    3.11640    2.01946  35.2%     -    0s
     0     0    2.01961    0   90    3.11640    2.01961  35.2%     -    0s
     0     0    2.02374    0   79    3.11640    2.02374  35.1%     -    0s
     0     0    2.02480    0   72    3.11640    2.02480  35.0%     -    0s
     0     0    2.02501    0   77    3.11640    2.02501  35.0%     -    0s
     0     0    2.02711    0   80    3.11640    2.02711  35.0%     -    0s
     0     0    2.02791    0   70    3.11640    2.02791  34.9%     -    0s
     0     0    2.02801    0   75    3.11640    2.02801  34.9%     -    0s
     0     0    2.02823    0   88    3.11640    2.02823  34.9%     -    0s
     0     0    2.02823    0   88    3.11640    2.02823  34.9%     -    0s
     0     2    2.02991    0   86    3.11640    2.02991  34.9%     -    0s
H  157    40                       3.0703580    2.33844  23.8%  39.6    0s
H  178    46                       3.0656666    2.33844  23.7%  37.8    0s
H  232    43                       2.9828271    2.40731  19.3%  41.0    0s
H  618    53                       2.9787654    2.76811  7.07%  41.6    1s
*  668    43              25       2.9693827    2.80741  5.45%  41.0    1s

Cutting planes:
  Gomory: 4
  Cover: 21
  Implied bound: 67
  Clique: 2
  MIR: 107
  StrongCG: 11
  RLT: 16
  Relax-and-lift: 154

Explored 871 nodes (33066 simplex iterations) in 1.24 seconds
Thread count was 1 (of 4 available processors)

Solution count 9: 2.96938 2.97877 2.98283 ... 3.58136

Optimal solution found (tolerance 1.00e-04)
Best objective 2.969382684779e+00, best bound 2.969382684779e+00, gap 0.0000%

---------------------------------------------------------------------------
Multi-objectives: solved in 1.24 seconds, solution count 9

